&CONTROL
calculation = "vc-md"
nstep = 200
etot_conv_thr = 1.0d-5
forc_conv_thr = 1.0d-4
disk_io = '/dev/null'
pseudo_dir = '/opt/QEpot/SSSP_efficiency_pseudos/'
tprnfor = .true.
tstress = .true.
verbosity = 'high'
dt = 20
/
&SYSTEM
ntyp =  2
occupations = 'smearing' !
smearing = 'gaussian'
degauss =   0.035
ecutrho =   1080
ecutwfc =   90
ibrav = 0
nat = 20
nosym = .TRUE.
starting_magnetization(1) =   3.5714285714d-01
starting_magnetization(2) =   2.7777777778d-01
nspin = 2
/
&ELECTRONS
conv_thr =   2.d-6
electron_maxstep = 200
mixing_beta =   0.2
mixing_mode = 'plain' !'local-TF'
mixing_ndim = 8 !set 4 or 3 if OOM-killer exists (out of memory)
diagonalization = 'david' !set cg if if OOM-killer exists (out of memory). other types can be used for scf problem.
diago_david_ndim = 4 !If david is used for diagonalization. set 2 if OOM-killer appears.
/
&IONS
ion_dynamics = "beeman"
ion_temperature = "rescaling"
tempw = 50
/
&CELL
press = 0
cell_dynamics = "pr"
press = 0
cell_dofree = "all"
/
K_POINTS {automatic}
8 6 2 0 0 0
ATOMIC_SPECIES
Cr     51.9961 cr_pbe_v1.5.uspp.F.UPF
Ni     58.6934 ni_pbe_v1.4.uspp.F.UPF
ATOMIC_POSITIONS {angstrom}
Cr 0 0 8.060431004046
Cr 1.448433 0 6.044021987436
Cr 0 0 4.004361012564
Cr 1.448433 0 1.987951995954
Cr 0 1.95953 18.108814004046
Cr 1.448433 1.95953 16.092404987436
Cr 0 1.95953 14.052744012564
Cr 1.448433 1.95953 12.036334995954
Cr 1.448433 0 18.108814004046
Cr 0 0 16.092404987436
Cr 1.448433 0 14.052744012564
Cr 0 0 12.036334995954
Cr 1.448433 1.95953 8.060431004046
Cr 0 1.95953 6.044021987436
Cr 1.448433 1.95953 4.004361012564
Cr 0 1.95953 1.987951995954
Ni 0 0 0
Ni 0 1.95953 10.048383
Ni 1.448433 0 10.048383
Ni 1.448433 1.95953 0
CELL_PARAMETERS {angstrom}
2.896866 0.00 0.00
0.000000 3.919060 0.00
0.000000 0.000000 20.096766