&CONTROL
calculation = "vc-md"
nstep = 200
etot_conv_thr = 1.0d-5
forc_conv_thr = 1.0d-4
disk_io = '/dev/null'
pseudo_dir = '/opt/QEpot/SSSP_efficiency_pseudos/'
tprnfor = .true.
tstress = .true.
verbosity = 'high'
dt = 20
/
&SYSTEM
ntyp =  2
occupations = 'smearing' !
smearing = 'gaussian'
degauss =   0.035
ecutrho =   1080
ecutwfc =   90
ibrav = 0
nat = 24
nosym = .TRUE.
starting_magnetization(1) =   2.9411764706d-01
starting_magnetization(2) =   3.8461538462d-01
nspin = 2
/
&ELECTRONS
conv_thr =   2.d-6
electron_maxstep = 200
mixing_beta =   0.2
mixing_mode = 'plain' !'local-TF'
mixing_ndim = 8 !set 4 or 3 if OOM-killer exists (out of memory)
diagonalization = 'david' !set cg if if OOM-killer exists (out of memory). other types can be used for scf problem.
diago_david_ndim = 4 !If david is used for diagonalization. set 2 if OOM-killer appears.
/
&IONS
ion_dynamics = "beeman"
ion_temperature = "rescaling"
tempw = 600
/
&CELL
press = 0
cell_dynamics = "pr"
press = 0
cell_dofree = "all"
/
K_POINTS {automatic}
4 4 3 0 0 0
ATOMIC_SPECIES
Co     58.933195 Co_pbe_v1.2.uspp.F.UPF
V      50.9415 v_pbe_v1.4.uspp.F.UPF
ATOMIC_POSITIONS {angstrom}
V -3.9703e-08 4.584501629515 3.479729137209
V 3.970294894703 2.292250780374 6.005103862791
V 0 0 6.639022676346
V -3.9703e-08 4.584501629515 6.005103862791
V 0 0 2.845810323654
V 3.970294894703 2.292250780374 3.479729137209
Co 3.970294855 0 6.732268069569
Co -1.96796200622 5.720705000639 3.60954804648
Co 0 2.312094818501 3.60954804648
Co -1.9851474275 3.438376204945 2.752564930431
Co 0 2.312094818501 5.87528495352
Co -1.96796200622 5.720705000639 5.87528495352
Co 2.00233284878 1.15604740925 3.60954804648
Co 1.96796200622 5.720705000639 3.60954804648
Co 3.970294855 0 2.752564930431
Co 5.93825686122 1.15604740925 5.87528495352
Co 5.93825686122 1.15604740925 3.60954804648
Co -1.9851474275 3.438376204945 6.732268069569
Co 3.970294855 4.564657591389 5.87528495352
Co 3.970294855 4.564657591389 3.60954804648
Co 2.00233284878 1.15604740925 5.87528495352
Co 1.96796200622 5.720705000639 5.87528495352
Co 1.9851474275 3.438376204945 6.732268069569
Co 1.9851474275 3.438376204945 2.752564930431
CELL_PARAMETERS {angstrom}
7.940590 0.00 0.00
-3.970295 6.876752 0.00
0.000000 0.000000 9.484833