&CONTROL
calculation = "vc-md"
nstep = 200
etot_conv_thr = 1.0d-5
forc_conv_thr = 1.0d-4
disk_io = '/dev/null'
pseudo_dir = '/opt/QEpot/SSSP_efficiency_pseudos/'
tprnfor = .true.
tstress = .true.
verbosity = 'high'
dt = 20
/
&SYSTEM
ntyp =  2
occupations = 'smearing' !
smearing = 'gaussian'
degauss =   0.035
ecutrho =   1080
ecutwfc =   90
ibrav = 0
nat = 24
nosym = .TRUE.
starting_magnetization(1) =   2.9411764706d-01
starting_magnetization(2) =   3.5714285714d-01
nspin = 2
/
&ELECTRONS
conv_thr =   2.d-6
electron_maxstep = 200
mixing_beta =   0.2
mixing_mode = 'plain' !'local-TF'
mixing_ndim = 8 !set 4 or 3 if OOM-killer exists (out of memory)
diagonalization = 'david' !set cg if if OOM-killer exists (out of memory). other types can be used for scf problem.
diago_david_ndim = 4 !If david is used for diagonalization. set 2 if OOM-killer appears.
/
&IONS
ion_dynamics = "beeman"
ion_temperature = "rescaling"
tempw = 50
/
&CELL
press = 0
cell_dynamics = "pr"
press = 0
cell_dofree = "all"
/
K_POINTS {automatic}
4 4 4 0 0 0
ATOMIC_SPECIES
Co     58.933195 Co_pbe_v1.2.uspp.F.UPF
Cr     51.9961 cr_pbe_v1.5.uspp.F.UPF
ATOMIC_POSITIONS {angstrom}
Cr 5.720904 5.720904 0.817272
Cr 2.451816 0.817272 2.451816
Cr 4.08636 5.720904 2.451816
Cr 0.817272 0.817272 0.817272
Cr 5.720904 2.451816 4.08636
Cr 2.451816 4.08636 5.720904
Cr 4.08636 2.451816 5.720904
Cr 0.817272 4.08636 4.08636
Cr 2.451816 5.720904 4.08636
Cr 5.720904 0.817272 5.720904
Cr 0.817272 5.720904 5.720904
Cr 4.08636 0.817272 4.08636
Cr 2.451816 2.451816 0.817272
Cr 5.720904 4.08636 2.451816
Cr 0.817272 2.451816 2.451816
Cr 4.08636 4.08636 0.817272
Co 1.634544 4.903632 1.634544
Co 0 0 3.269088
Co 1.634544 1.634544 4.903632
Co 0 3.269088 0
Co 4.903632 4.903632 4.903632
Co 3.269088 0 0
Co 4.903632 1.634544 1.634544
Co 3.269088 3.269088 3.269088
CELL_PARAMETERS {angstrom}
6.538176 0.00 0.00
0.000000 6.538176 0.00
0.000000 0.000000 6.538176