&CONTROL
calculation = "vc-md"
nstep = 200
etot_conv_thr = 1.0d-5
forc_conv_thr = 1.0d-4
disk_io = '/dev/null'
pseudo_dir = '/opt/QEpot/SSSP_efficiency_pseudos/'
tprnfor = .true.
tstress = .true.
verbosity = 'high'
dt = 20
/
&SYSTEM
ntyp =  2
occupations = 'smearing' !
smearing = 'gaussian'
degauss =   0.035
ecutrho =   1080
ecutwfc =   90
ibrav = 0
nat = 24
nosym = .TRUE.
starting_magnetization(1) =   3.1250000000d-01
starting_magnetization(2) =   2.7777777778d-01
nspin = 2
/
&ELECTRONS
conv_thr =   2.d-6
electron_maxstep = 200
mixing_beta =   0.2
mixing_mode = 'plain' !'local-TF'
mixing_ndim = 8 !set 4 or 3 if OOM-killer exists (out of memory)
diagonalization = 'david' !set cg if if OOM-killer exists (out of memory). other types can be used for scf problem.
diago_david_ndim = 4 !If david is used for diagonalization. set 2 if OOM-killer appears.
/
&IONS
ion_dynamics = "beeman"
ion_temperature = "rescaling"
tempw = 50
/
&CELL
press = 0
cell_dynamics = "pr"
press = 0
cell_dofree = "all"
/
K_POINTS {automatic}
4 4 4 0 0 0
ATOMIC_SPECIES
Fe     55.845 Fe.pbe-spn-kjpaw_psl.0.2.1.UPF
Ni     58.6934 ni_pbe_v1.4.uspp.F.UPF
ATOMIC_POSITIONS {angstrom}
Fe 5.71225025 5.71225025 0.81603575
Fe 2.44810725 0.81603575 2.44810725
Fe 4.08017875 5.71225025 2.44810725
Fe 0.81603575 0.81603575 0.81603575
Fe 5.71225025 2.44810725 4.08017875
Fe 2.44810725 4.08017875 5.71225025
Fe 4.08017875 2.44810725 5.71225025
Fe 0.81603575 4.08017875 4.08017875
Fe 2.44810725 5.71225025 4.08017875
Fe 5.71225025 0.81603575 5.71225025
Fe 0.81603575 5.71225025 5.71225025
Fe 4.08017875 0.81603575 4.08017875
Fe 2.44810725 2.44810725 0.81603575
Fe 5.71225025 4.08017875 2.44810725
Fe 0.81603575 2.44810725 2.44810725
Fe 4.08017875 4.08017875 0.81603575
Ni 1.6320715 4.8962145 1.6320715
Ni 0 0 3.264143
Ni 1.6320715 1.6320715 4.8962145
Ni 0 3.264143 0
Ni 4.8962145 4.8962145 4.8962145
Ni 3.264143 0 0
Ni 4.8962145 1.6320715 1.6320715
Ni 3.264143 3.264143 3.264143
CELL_PARAMETERS {angstrom}
6.528286 0.00 0.00
0.000000 6.528286 0.00
0.000000 0.000000 6.528286