&CONTROL
calculation = "vc-md"
nstep = 200
etot_conv_thr = 1.0d-5
forc_conv_thr = 1.0d-4
disk_io = '/dev/null'
pseudo_dir = '/opt/QEpot/SSSP_efficiency_pseudos/'
tprnfor = .true.
tstress = .true.
verbosity = 'high'
dt = 20
/
&SYSTEM
ntyp =  2
occupations = 'smearing' !
smearing = 'gaussian'
degauss =   0.035
ecutrho =   1080
ecutwfc =   90
ibrav = 0
nat = 12
nosym = .TRUE.
starting_magnetization(1) =   2.7777777778d-01
starting_magnetization(2) =   3.8461538462d-01
nspin = 2
/
&ELECTRONS
conv_thr =   2.d-6
electron_maxstep = 200
mixing_beta =   0.2
mixing_mode = 'plain' !'local-TF'
mixing_ndim = 8 !set 4 or 3 if OOM-killer exists (out of memory)
diagonalization = 'david' !set cg if if OOM-killer exists (out of memory). other types can be used for scf problem.
diago_david_ndim = 4 !If david is used for diagonalization. set 2 if OOM-killer appears.
/
&IONS
ion_dynamics = "beeman"
ion_temperature = "rescaling"
tempw = 50
/
&CELL
press = 0
cell_dynamics = "pr"
press = 0
cell_dofree = "all"
/
K_POINTS {automatic}
10 10 1 0 0 0
ATOMIC_SPECIES
Ni     58.6934 ni_pbe_v1.4.uspp.F.UPF
V      50.9415 v_pbe_v1.4.uspp.F.UPF
ATOMIC_POSITIONS {angstrom}
V 0 0 0
V 1.256561912566 0.725476343964 8.203650131297
V -1.2566e-08 1.450952709692 16.407300508703
Ni 0 0 6.151359446764
Ni -1.2566e-08 1.450952709692 4.101825188703
Ni 1.256561912566 0.725476343964 2.052290684533
Ni 1.256561912566 0.725476343964 14.355009578061
Ni 1.2565619 2.176429053655 12.30547532
Ni -1.2566e-08 1.450952709692 10.255941061939
Ni -1.2566e-08 1.450952709692 22.558659955467
Ni 1.256561912566 0.725476343964 20.509125451297
Ni 0 0 18.459591193236
CELL_PARAMETERS {angstrom}
2.513124 0.00 0.00
-1.256562 2.176429 0.00
0.000000 0.000000 24.610951