&CONTROL
calculation = "vc-md"
nstep = 200
etot_conv_thr = 1.0d-5
forc_conv_thr = 1.0d-4
disk_io = '/dev/null'
pseudo_dir = '/opt/QEpot/SSSP_efficiency_pseudos/'
tprnfor = .true.
tstress = .true.
verbosity = 'high'
dt = 20
/
&SYSTEM
ntyp =  2
occupations = 'smearing' !
smearing = 'gaussian'
degauss =   0.035
ecutrho =   1080
ecutwfc =   90
ibrav = 0
nat = 8
nosym = .TRUE.
starting_magnetization(1) =   2.9411764706d-01
starting_magnetization(2) =   3.5714285714d-01
nspin = 2
/
&ELECTRONS
conv_thr =   2.d-6
electron_maxstep = 200
mixing_beta =   0.2
mixing_mode = 'plain' !'local-TF'
mixing_ndim = 8 !set 4 or 3 if OOM-killer exists (out of memory)
diagonalization = 'david' !set cg if if OOM-killer exists (out of memory). other types can be used for scf problem.
diago_david_ndim = 4 !If david is used for diagonalization. set 2 if OOM-killer appears.
/
&IONS
ion_dynamics = "beeman"
ion_temperature = "rescaling"
tempw = 600
/
&CELL
press = 0
cell_dynamics = "pr"
press = 0
cell_dofree = "all"
/
K_POINTS {automatic}
5 5 6 0 0 0
ATOMIC_SPECIES
Co     58.933195 Co_pbe_v1.2.uspp.F.UPF
Cr     51.9961 cr_pbe_v1.5.uspp.F.UPF
ATOMIC_POSITIONS {angstrom}
Cr 1.25637787093 0.725370101985 3.06252675
Cr 1.28498600407 3.676401250035 1.02084225
Cr 3.82634987907 0.725370101985 3.06252675
Cr -1.28498600407 3.676401250035 1.02084225
Cr 2.541363875 2.95103114805 3.06252675
Cr 0 1.45074020397 1.02084225
Co 2.541363900414 1.467257102667 1.02084225
Co -2.5414e-08 2.934514249353 3.06252675
CELL_PARAMETERS {angstrom}
5.082728 0.00 0.00
-2.541364 4.401771 0.00
0.000000 0.000000 4.083369