&CONTROL
calculation = "vc-md"
nstep = 200
etot_conv_thr = 1.0d-5
forc_conv_thr = 1.0d-4
disk_io = '/dev/null'
pseudo_dir = '/opt/QEpot/SSSP_efficiency_pseudos/'
tprnfor = .true.
tstress = .true.
verbosity = 'high'
dt = 20
/
&SYSTEM
ntyp =  4
occupations = 'smearing' !
smearing = 'gaussian'
degauss =   0.035
ecutrho =   1080
ecutwfc =   90
ibrav = 0
nat = 64
nosym = .TRUE.
starting_magnetization(1) =   2.9411764706d-01
starting_magnetization(2) =   3.5714285714d-01
starting_magnetization(3) =   3.1250000000d-01
starting_magnetization(4) =   2.7777777778d-01
nspin = 2
/
&ELECTRONS
conv_thr =   2.d-6
electron_maxstep = 200
mixing_beta =   0.2
mixing_mode = 'plain' !'local-TF'
mixing_ndim = 8 !set 4 or 3 if OOM-killer exists (out of memory)
diagonalization = 'david' !set cg if if OOM-killer exists (out of memory). other types can be used for scf problem.
diago_david_ndim = 4 !If david is used for diagonalization. set 2 if OOM-killer appears.
/
&IONS
ion_dynamics = "beeman"
ion_temperature = "rescaling"
tempw = 600
/
&CELL
press = 0
cell_dynamics = "pr"
press = 0
cell_dofree = "all"
/
K_POINTS {automatic}
3 3 3 0 0 0
ATOMIC_SPECIES
Co     58.933195 Co_pbe_v1.2.uspp.F.UPF
Cr     51.9961 cr_pbe_v1.5.uspp.F.UPF
Fe     55.845 Fe.pbe-spn-kjpaw_psl.0.2.1.UPF
Ni     58.6934 ni_pbe_v1.4.uspp.F.UPF
ATOMIC_POSITIONS {angstrom}
Cr 1.272493902565 3.616988923276 8.145009710535
Cr 3.781842026307 -0.686951965683 8.108750306726
Cr -0.002907570696 4.352533361906 6.115602921019
Cr -1.250119058613 5.068370526854 4.040046313219
Cr 0.024538515521 1.455759826533 2.04841109832
Cr -2.479897263199 5.757339447266 2.043416847706
Cr 1.242577095306 -0.712155925736 8.169662181655
Cr 1.177329330671 6.470247917523 0.026516119467
Cr -3.696258381973 2.14904717674 6.090893232625
Cr 2.50522645938 7.208199908222 4.071197031866
Cr -0.005864261381 4.297808076912 0.047743728054
Cr -3.764253116509 -2.135160897996 6.202303438648
Cr -6.299836285871 2.194159981323 6.219558533653
Cr 3.737190441822 0.709915213188 4.076060500141
Cr -0.01645890598 7.205738441324 4.085476828632
Cr 0.021831495495 5.768936014052 2.075311390912
Fe 2.507228920763 0.033367500304 6.078329954074
Fe -1.21929638808 6.502865818098 6.107641546062
Fe 0.01940981746 2.869114822142 4.098824801225
Fe 2.492760434795 -1.43662032562 4.085623958765
Fe -1.241788446908 3.588207626525 8.162886021656
Fe 0.018408975408 0.047092444761 6.128599416072
Fe 0.018931194001 -1.421304593712 4.093094899946
Fe 8.728264857328 -0.715120310154 2.040482418948
Fe 3.731540076635 2.155810809108 0.019903437393
Fe -2.498485482185 -0.014102849526 6.12602463875
Fe 3.753382089359 5.057241477471 4.065933042675
Fe 4.99864504507 2.885336902263 4.083523267426
Fe -3.723118716646 0.718828121359 4.093372812419
Fe -7.477269420548 4.341367175842 6.157485965455
Fe 4.990196148425 0.003803573783 6.134394708521
Fe 2.508510924036 2.848896266435 4.101554882575
Co -7.478623442041 1.460186698745 8.167479751354
Co 1.255294012425 2.170510269871 6.154927535926
Co 1.250755108197 0.720966963501 4.076812498597
Co -3.734238159214 7.933120296551 2.039231812821
Co -1.248675669213 3.602888623768 2.00675692298
Co 0.027035375535 1.476299197283 8.170471397385
Co -1.250526642657 2.188876406773 6.156529619592
Co 1.24088167158 -2.143638791206 6.137558006373
Co -3.749561211006 5.049861538755 4.102364098305
Co -4.951009796392 5.75636372768 2.039918420106
Co -4.993469054505 5.767025183322 8.153486040957
Co 2.495394193988 5.777062739296 2.020472720904
Co 1.238835256273 2.162352409601 0.01038084825
Co -7.486298752296 5.754182375572 8.163016803996
Co -6.238950962865 3.603851560663 8.164627061559
Co 2.480271340597 1.427369525626 2.044291454605
Ni -9.966986231434 5.766714093 8.172106176637
Ni -2.486184778323 5.769603242629 8.163842367518
Ni -2.494001182585 4.346204004109 6.139748610571
Ni -1.235055052229 0.734450410195 4.096405327932
Ni -2.477942471907 2.903652146844 4.09127212108
Ni -3.739039059139 3.618721446626 2.048991444955
Ni -2.486838258586 1.44894907646 2.046621015039
Ni -2.492177215811 1.443263401509 8.161480111499
Ni -6.222157742603 6.484319423833 6.136070357254
Ni -4.991125907117 4.333233503136 6.14071313033
Ni 3.744833142124 3.613867757547 2.038389901506
Ni 4.995046922754 1.433298292714 2.051737874098
Ni 6.244934801368 -0.706766234976 2.024404365005
Ni 1.26393112309 5.038961829611 4.100884623082
Ni 1.2501859133 3.610908073231 2.055906561191
Ni -1.256021923229 7.926750418183 2.039730420492
CELL_PARAMETERS {angstrom}
9.983615 0.00 0.00
-4.989251 8.651556 0.00
-4.985952 -2.874830 8.173896