&CONTROL
calculation = "vc-md"
nstep = 200
etot_conv_thr = 1.0d-5
forc_conv_thr = 1.0d-4
disk_io = '/dev/null'
pseudo_dir = '/opt/QEpot/SSSP_efficiency_pseudos/'
tprnfor = .true.
tstress = .true.
verbosity = 'high'
dt = 20
/
&SYSTEM
ntyp =  2
occupations = 'smearing' !
smearing = 'gaussian'
degauss =   0.035
ecutrho =   1080
ecutwfc =   90
ibrav = 0
nat = 15
nosym = .TRUE.
starting_magnetization(1) =   2.9411764706d-01
starting_magnetization(2) =   3.8461538462d-01
nspin = 2
/
&ELECTRONS
conv_thr =   2.d-6
electron_maxstep = 200
mixing_beta =   0.2
mixing_mode = 'plain' !'local-TF'
mixing_ndim = 8 !set 4 or 3 if OOM-killer exists (out of memory)
diagonalization = 'david' !set cg if if OOM-killer exists (out of memory). other types can be used for scf problem.
diago_david_ndim = 4 !If david is used for diagonalization. set 2 if OOM-killer appears.
/
&IONS
ion_dynamics = "beeman"
ion_temperature = "rescaling"
tempw = 50
/
&CELL
press = 0
cell_dynamics = "pr"
press = 0
cell_dofree = "all"
/
K_POINTS {automatic}
10 10 1 0 0 0
ATOMIC_SPECIES
Co     58.933195 Co_pbe_v1.2.uspp.F.UPF
V      50.9415 v_pbe_v1.4.uspp.F.UPF
ATOMIC_POSITIONS {angstrom}
V 0 0 0
V 1.259340057593 0.727080306711 10.279311877207
V -1.2593e-08 1.454160635235 20.558624062793
Co -1.2593e-08 1.454160635235 2.115348877221
Co 1.259340057593 0.727080306711 4.132355268351
Co 0 0 6.146956608856
Co -1.2593e-08 1.454160635235 8.163963308365
Co 0 0 12.394660754428
Co -1.2593e-08 1.454160635235 14.411667453937
Co 1.259340057593 0.727080306711 16.426268486063
Co 0 0 18.443275185572
Co 1.259340057593 0.727080306711 22.673972631635
Co 0 0 24.690979331144
Co -1.2593e-08 1.454160635235 26.705580671649
Co 1.259340057593 0.727080306711 28.722587062779
CELL_PARAMETERS {angstrom}
2.518680 0.00 0.00
-1.259340 2.181241 0.00
0.000000 0.000000 30.837936