&CONTROL
calculation = "vc-md"
nstep = 200
etot_conv_thr = 1.0d-5
forc_conv_thr = 1.0d-4
disk_io = '/dev/null'
pseudo_dir = '/opt/QEpot/SSSP_efficiency_pseudos/'
tprnfor = .true.
tstress = .true.
verbosity = 'high'
dt = 20
/
&SYSTEM
ntyp =  1
occupations = 'smearing' !
smearing = 'gaussian'
degauss =   0.035
ecutrho =   1080
ecutwfc =   90
ibrav = 0
nat = 28
nosym = .TRUE.
starting_magnetization(1) =   2.9411764706d-01
nspin = 2
/
&ELECTRONS
conv_thr =   2.d-6
electron_maxstep = 200
mixing_beta =   0.2
mixing_mode = 'plain' !'local-TF'
mixing_ndim = 8 !set 4 or 3 if OOM-killer exists (out of memory)
diagonalization = 'david' !set cg if if OOM-killer exists (out of memory). other types can be used for scf problem.
diago_david_ndim = 4 !If david is used for diagonalization. set 2 if OOM-killer appears.
/
&IONS
ion_dynamics = "beeman"
ion_temperature = "rescaling"
tempw = 600
/
&CELL
press = 0
cell_dynamics = "pr"
press = 0
cell_dofree = "all"
/
K_POINTS {automatic}
3 3 5 0 0 0
ATOMIC_SPECIES
Co     58.933195 Co_pbe_v1.2.uspp.F.UPF
ATOMIC_POSITIONS {angstrom}
Co 7.529291335791 0.788278464209 2.25807436
Co 0.788278464209 7.529291335791 2.25807436
Co 3.370506435791 3.370506435791 0
Co 4.947063364209 4.947063364209 0
Co 8.094957945994 3.014945880697 2.25807436
Co 0.222611854006 5.302623919303 2.25807436
Co 3.936173045994 1.143839019303 0
Co 4.381396754006 7.173730780697 0
Co 3.014945880697 8.094957945994 2.25807436
Co 5.302623919303 0.222611854006 2.25807436
Co 1.143839019303 3.936173045994 0
Co 7.173730780697 4.381396754006 0
Co 2.103906158066 3.713960268988 2.25807436
Co 6.213663641934 4.603609531012 2.25807436
Co 6.262691058066 0.444824631012 0
Co 2.054878741934 7.872745168988 0
Co 3.713960268988 2.103906158066 2.25807436
Co 4.603609531012 6.213663641934 2.25807436
Co 0.444824631012 6.262691058066 0
Co 7.872745168988 2.054878741934 0
Co 5.715203993823 2.602365806177 1.125244473143
Co 2.602365806177 5.715203993823 1.125244473143
Co 1.556419093823 1.556419093823 3.383318833143
Co 6.761150706177 6.761150706177 3.383318833143
Co 2.602365806177 5.715203993823 3.390904246857
Co 5.715203993823 2.602365806177 3.390904246857
Co 6.761150706177 6.761150706177 1.132829886857
Co 1.556419093823 1.556419093823 1.132829886857
CELL_PARAMETERS {angstrom}
8.317570 0.00 0.00
0.000000 8.317570 0.00
0.000000 0.000000 4.516149