&CONTROL
calculation = "vc-md"
nstep = 200
etot_conv_thr = 1.0d-5
forc_conv_thr = 1.0d-4
disk_io = '/dev/null'
pseudo_dir = '/opt/QEpot/SSSP_efficiency_pseudos/'
tprnfor = .true.
tstress = .true.
verbosity = 'high'
dt = 20
/
&SYSTEM
ntyp =  1
occupations = 'smearing' !
smearing = 'gaussian'
degauss =   0.035
ecutrho =   1080
ecutwfc =   90
ibrav = 0
nat = 4
nosym = .TRUE.
starting_magnetization(1) =   1.0000000000d-01
nspin = 2
/
&ELECTRONS
conv_thr =   2.d-6
electron_maxstep = 200
mixing_beta =   0.2
mixing_mode = 'plain' !'local-TF'
mixing_ndim = 8 !set 4 or 3 if OOM-killer exists (out of memory)
diagonalization = 'david' !set cg if if OOM-killer exists (out of memory). other types can be used for scf problem.
diago_david_ndim = 4 !If david is used for diagonalization. set 2 if OOM-killer appears.
/
&IONS
ion_dynamics = "beeman"
ion_temperature = "rescaling"
tempw = 50
/
&CELL
press = 0
cell_dynamics = "pr"
press = 0
cell_dofree = "all"
/
K_POINTS {automatic}
1 5 1 0 0 0
ATOMIC_SPECIES
Cu     63.546 Cu.paw.z_11.ld1.psl.v1.0.0-low.upf
ATOMIC_POSITIONS {angstrom}
Cu 3.487315004548 1.11910605 10.87169417146
Cu 15.057568954548 1.11910605 10.87169417146
Cu 3.487315004548 3.35731815 10.87169417146
Cu 15.057568954548 3.35731815 10.87169417146
CELL_PARAMETERS {angstrom}
23.140508 0.00 0.00
0.000000 4.476424 0.00
-4.595624 0.000000 21.743388