&CONTROL
calculation = "vc-md"
nstep = 200
etot_conv_thr = 1.0d-5
forc_conv_thr = 1.0d-4
disk_io = '/dev/null'
pseudo_dir = '/opt/QEpot/SSSP_efficiency_pseudos/'
tprnfor = .true.
tstress = .true.
verbosity = 'high'
dt = 20
/
&SYSTEM
ntyp =  1
occupations = 'smearing' !
smearing = 'gaussian'
degauss =   0.035
ecutrho =   1080
ecutwfc =   90
ibrav = 0
nat = 100
nosym = .TRUE.
starting_magnetization(1) =   3.1250000000d-01
nspin = 2
/
&ELECTRONS
conv_thr =   2.d-6
electron_maxstep = 200
mixing_beta =   0.2
mixing_mode = 'plain' !'local-TF'
mixing_ndim = 8 !set 4 or 3 if OOM-killer exists (out of memory)
diagonalization = 'david' !set cg if if OOM-killer exists (out of memory). other types can be used for scf problem.
diago_david_ndim = 4 !If david is used for diagonalization. set 2 if OOM-killer appears.
/
&IONS
ion_dynamics = "beeman"
ion_temperature = "rescaling"
tempw = 600
/
&CELL
press = 0
cell_dynamics = "pr"
press = 0
cell_dofree = "all"
/
K_POINTS {automatic}
3 3 2 0 0 0
ATOMIC_SPECIES
Fe     55.845 Fe.pbe-spn-kjpaw_psl.0.2.1.UPF
ATOMIC_POSITIONS {angstrom}
Fe 5.728165883393 6.109528884806 5.765078631075
Fe 8.399659404411 3.608541289903 8.053274868444
Fe 8.695789181715 7.648788397295 1.902447910175
Fe 1.52126873767 9.910434075427 3.690581787418
Fe 7.967954912073 5.789216837899 8.64039439557
Fe 7.255267673128 1.186467279718 2.488625700277
Fe 3.840952042454 7.500834326683 5.908725632016
Fe -0.155342395377 7.924258346393 5.555820383559
Fe 9.921451750598 5.4499858401 6.952566213017
Fe 0.09047921369 9.784722511652 7.64229226961
Fe 1.971732993011 9.156056712816 6.182300237697
Fe 1.423432124116 0.549083344425 9.629228973083
Fe 9.187329654879 7.734161226013 8.040497209267
Fe 0.072248664333 8.778973989337 9.931077092619
Fe 1.244157079153 2.356803618761 4.078898488315
Fe 4.029459322976 9.72480067586 4.894902918677
Fe 4.153569692022 4.742972842507 8.863232919045
Fe 0.72517843185 8.591941530984 1.794715334859
Fe 8.09967017195 9.718336596424 8.840064047925
Fe 5.858177029855 2.274372518654 0.103805103861
Fe 6.064943324602 5.158525265113 3.637940828047
Fe 3.913125652636 6.442375947067 0.249849253592
Fe 2.809329451781 1.071272483518 5.348745253692
Fe 5.081114552394 2.600943936378 8.453684328863
Fe 1.743578995839 4.593842393308 10.646326362894
Fe 6.43511319259 8.764605921599 10.339480616192
Fe 3.908258426238 4.976483762217 2.295847850694
Fe 6.11147488667 4.724466648749 7.631708429639
Fe 8.311367044889 7.593360333307 10.242556613545
Fe 9.391449881512 2.055795987882 1.046184222006
Fe 9.614602766768 1.219910639838 9.477652118331
Fe 3.341582848601 2.857428436706 6.874594667994
Fe 0.29754882712 3.38054205621 8.461346643746
Fe 4.387037596265 9.236593396022 7.340615374987
Fe 2.491029764722 3.180698382338 1.978610892049
Fe 7.589522265103 3.436403094351 1.416832652133
Fe 3.709223245244 5.060286625807 6.559797664367
Fe 9.012257750452 1.056341682585 7.24365926767
Fe 7.047489093271 2.374613096814 6.529522959334
Fe 9.911173475462 4.742179430584 4.557140373516
Fe 0.16328595803 4.088500049955 2.00402709016
Fe 2.341999843587 9.99239188111 0.53339771049
Fe 4.29156452456 4.021515377262 0.125657683457
Fe 5.787566826453 7.564236510563 1.363068029267
Fe -0.144643977139 5.893814165347 9.36838922035
Fe 5.542425451333 1.389392769469 4.318827398477
Fe 9.25230355482 9.509701525218 3.553484139422
Fe 9.291284199635 10.06718774354 1.02351832407
Fe 3.536308429365 3.222435857329 4.246977144113
Fe 6.034569907457 8.369913681506 5.822224945984
Fe 3.264690529474 0.772455324547 8.079247547523
Fe 2.570985944649 2.850607288992 9.124083373335
Fe 6.45589327502 7.926701181567 8.098606664315
Fe 8.427807427447 9.242544317723 6.142308518818
Fe 6.790631920642 -0.035215891505 6.981321296943
Fe 2.35144306021 7.698126060034 3.95751072614
Fe 9.556956482279 2.857810991687 5.890961047231
Fe 1.413067803685 3.825267917229 6.032596155438
Fe 0.986744907126 2.822843108144 0.121976347815
Fe 7.839325890453 6.893939806578 6.486363579553
Fe 6.801430340087 9.662313506427 4.235965241858
Fe 5.206766767207 2.847683116544 2.304494708831
Fe 7.198415577419 9.345685095585 1.935387302926
Fe 7.296018982866 1.667594634109 8.860728754683
Fe 3.423023417416 1.012570493364 2.830989914991
Fe 0.174704112751 0.373055730111 5.283797503658
Fe 7.393952941063 3.118850603236 4.053749829132
Fe 3.751820388254 5.752776095357 4.383935671867
Fe 5.356498638567 3.616591356671 5.576442284089
Fe 5.985064310272 5.21425613151 1.264763525755
Fe 6.671076693592 3.875498731553 9.835833234438
Fe 0.005119049698 6.790610665904 3.402881126366
Fe 8.304917668599 5.295266581538 2.782511861332
Fe 3.423807914826 8.455394769616 1.89604837903
Fe 5.832079806896 6.271114324137 9.747299252557
Fe 2.069779036541 6.408997011121 1.946163770925
Fe 7.600756315506 0.79479555319 0.167254635902
Fe 5.04731621292 9.925400390745 2.897767631289
Fe 7.74292654167 7.24730078206 4.128789147511
Fe 1.064179110678 7.409615549824 7.828360242892
Fe 3.396944053852 1.794852163782 0.301955135108
Fe 1.895644372507 5.146911532905 8.181511627162
Fe 9.221614148027 3.735535758428 10.397076396499
Fe 4.914894786764 1.1377119592 6.478562144428
Fe 1.832973568185 7.196559764497 10.356528196651
Fe 5.085197579237 0.090216342215 0.849318377612
Fe 7.984908061757 5.905114305802 0.379316691377
Fe 9.461880265636 2.125529210048 3.343187840867
Fe 5.442107279928 0.083112442308 9.120690979734
Fe 1.72289116039 4.844360282134 3.737764952668
Fe 1.018064549864 1.05094283038 1.87096392919
Fe 3.568203142845 6.968148756476 8.211978960223
Fe 7.755274677485 4.706573430854 5.695711137959
Fe 2.370088970277 9.10955028743 8.773083002042
Fe 4.226810129586 8.349502097582 10.066120041653
Fe 1.609859667559 6.246294952759 5.772762349072
Fe 1.157562955159 1.586305525682 7.163558112783
Fe 8.134437357823 0.950267700217 4.974822147093
Fe 5.077367202462 7.606246259911 3.667166780485
Fe -0.095895787473 6.267775904113 0.963343468502
CELL_PARAMETERS {angstrom}
10.406331 0.00 0.00
-0.217350 10.453731 0.00
-0.091110 -0.378683 10.701557