&CONTROL
calculation = "vc-md"
nstep = 200
etot_conv_thr = 1.0d-5
forc_conv_thr = 1.0d-4
disk_io = '/dev/null'
pseudo_dir = '/opt/QEpot/SSSP_efficiency_pseudos/'
tprnfor = .true.
tstress = .true.
verbosity = 'high'
dt = 20
/
&SYSTEM
ntyp =  1
occupations = 'smearing' !
smearing = 'gaussian'
degauss =   0.035
ecutrho =   1080
ecutwfc =   90
ibrav = 0
nat = 24
nosym = .TRUE.
starting_magnetization(1) =   2.9411764706d-01
nspin = 2
/
&ELECTRONS
conv_thr =   2.d-6
electron_maxstep = 200
mixing_beta =   0.2
mixing_mode = 'plain' !'local-TF'
mixing_ndim = 8 !set 4 or 3 if OOM-killer exists (out of memory)
diagonalization = 'david' !set cg if if OOM-killer exists (out of memory). other types can be used for scf problem.
diago_david_ndim = 4 !If david is used for diagonalization. set 2 if OOM-killer appears.
/
&IONS
ion_dynamics = "beeman"
ion_temperature = "rescaling"
tempw = 600
/
&CELL
press = 0
cell_dynamics = "pr"
press = 0
cell_dofree = "all"
/
K_POINTS {automatic}
4 4 4 0 0 0
ATOMIC_SPECIES
Co     58.933195 Co_pbe_v1.2.uspp.F.UPF
ATOMIC_POSITIONS {angstrom}
Co 4.82605764 4.82605764 1.60868588
Co 0 3.21737176 3.21737176
Co 5.63040058 5.63040058 4.0217147
Co 5.63040058 0.80434294 2.41302882
Co 4.0217147 5.63040058 5.63040058
Co 4.0217147 0.80434294 0.80434294
Co 4.82605764 1.60868588 4.82605764
Co 0 0 0
Co 5.63040058 2.41302882 0.80434294
Co 5.63040058 4.0217147 5.63040058
Co 4.0217147 2.41302882 2.41302882
Co 4.0217147 4.0217147 4.0217147
Co 1.60868588 4.82605764 4.82605764
Co 3.21737176 3.21737176 0
Co 2.41302882 5.63040058 0.80434294
Co 2.41302882 0.80434294 5.63040058
Co 0.80434294 5.63040058 2.41302882
Co 0.80434294 0.80434294 4.0217147
Co 1.60868588 1.60868588 1.60868588
Co 3.21737176 0 3.21737176
Co 2.41302882 2.41302882 4.0217147
Co 2.41302882 4.0217147 2.41302882
Co 0.80434294 2.41302882 5.63040058
Co 0.80434294 4.0217147 0.80434294
CELL_PARAMETERS {angstrom}
6.434744 0.00 0.00
0.000000 6.434744 0.00
0.000000 0.000000 6.434744