&CONTROL
calculation = "vc-md"
nstep = 200
etot_conv_thr = 1.0d-5
forc_conv_thr = 1.0d-4
disk_io = '/dev/null'
pseudo_dir = '/opt/QEpot/SSSP_efficiency_pseudos/'
tprnfor = .true.
tstress = .true.
verbosity = 'high'
dt = 20
/
&SYSTEM
ntyp =  2
occupations = 'smearing' !
smearing = 'gaussian'
degauss =   0.035
ecutrho =   1080
ecutwfc =   90
ibrav = 0
nat = 15
nosym = .TRUE.
starting_magnetization(1) =   1.0000000000d-01
starting_magnetization(2) =   3.1250000000d-01
nspin = 2
/
&ELECTRONS
conv_thr =   2.d-6
electron_maxstep = 200
mixing_beta =   0.2
mixing_mode = 'plain' !'local-TF'
mixing_ndim = 8 !set 4 or 3 if OOM-killer exists (out of memory)
diagonalization = 'david' !set cg if if OOM-killer exists (out of memory). other types can be used for scf problem.
diago_david_ndim = 4 !If david is used for diagonalization. set 2 if OOM-killer appears.
/
&IONS
ion_dynamics = "beeman"
ion_temperature = "rescaling"
tempw = 600
/
&CELL
press = 0
cell_dynamics = "pr"
press = 0
cell_dofree = "all"
/
K_POINTS {automatic}
10 10 1 0 0 0
ATOMIC_SPECIES
Cu     63.546 Cu.paw.z_11.ld1.psl.v1.0.0-low.upf
Fe     55.845 Fe.pbe-spn-kjpaw_psl.0.2.1.UPF
ATOMIC_POSITIONS {angstrom}
Fe 0 0 0
Fe 1.275231077752 0.736254991294 10.490157311765
Fe -1.2752e-08 1.472510004676 20.980314938235
Cu -1.2752e-08 1.472510004676 2.103853625601
Cu 1.275231077752 0.736254991294 4.197510503489
Cu 0 0 6.292646808276
Cu -1.2752e-08 1.472510004676 8.386304000869
Cu 0 0 12.594010937366
Cu -1.2752e-08 1.472510004676 14.687668129958
Cu 1.275231077752 0.736254991294 16.782804120042
Cu 0 0 18.876461312634
Cu 1.275231077752 0.736254991294 23.084168249131
Cu 0 0 25.177825441724
Cu -1.2752e-08 1.472510004676 27.272961746511
Cu 1.275231077752 0.736254991294 29.366618624399
CELL_PARAMETERS {angstrom}
2.550462 0.00 0.00
-1.275231 2.208765 0.00
0.000000 0.000000 31.470472