&CONTROL
calculation = "vc-md"
nstep = 200
etot_conv_thr = 1.0d-5
forc_conv_thr = 1.0d-4
disk_io = '/dev/null'
pseudo_dir = '/opt/QEpot/SSSP_efficiency_pseudos/'
tprnfor = .true.
tstress = .true.
verbosity = 'high'
dt = 20
/
&SYSTEM
ntyp =  2
occupations = 'smearing' !
smearing = 'gaussian'
degauss =   0.035
ecutrho =   1080
ecutwfc =   90
ibrav = 0
nat = 24
nosym = .TRUE.
starting_magnetization(1) =   3.1250000000d-01
starting_magnetization(2) =   2.7777777778d-01
nspin = 2
/
&ELECTRONS
conv_thr =   2.d-6
electron_maxstep = 200
mixing_beta =   0.2
mixing_mode = 'plain' !'local-TF'
mixing_ndim = 8 !set 4 or 3 if OOM-killer exists (out of memory)
diagonalization = 'david' !set cg if if OOM-killer exists (out of memory). other types can be used for scf problem.
diago_david_ndim = 4 !If david is used for diagonalization. set 2 if OOM-killer appears.
/
&IONS
ion_dynamics = "beeman"
ion_temperature = "rescaling"
tempw = 600
/
&CELL
press = 0
cell_dynamics = "pr"
press = 0
cell_dofree = "all"
/
K_POINTS {automatic}
4 4 4 0 0 0
ATOMIC_SPECIES
Fe     55.845 Fe.pbe-spn-kjpaw_psl.0.2.1.UPF
Ni     58.6934 ni_pbe_v1.4.uspp.F.UPF
ATOMIC_POSITIONS {angstrom}
Fe 1.6375395 4.9126185 1.6375395
Fe 0 0 3.275079
Fe 1.6375395 1.6375395 4.9126185
Fe 0 3.275079 0
Fe 4.9126185 4.9126185 4.9126185
Fe 3.275079 0 0
Fe 4.9126185 1.6375395 1.6375395
Fe 3.275079 3.275079 3.275079
Ni 5.73138825 5.73138825 0.81876975
Ni 2.45630925 0.81876975 2.45630925
Ni 4.09384875 5.73138825 2.45630925
Ni 0.81876975 0.81876975 0.81876975
Ni 5.73138825 2.45630925 4.09384875
Ni 2.45630925 4.09384875 5.73138825
Ni 4.09384875 2.45630925 5.73138825
Ni 0.81876975 4.09384875 4.09384875
Ni 2.45630925 5.73138825 4.09384875
Ni 5.73138825 0.81876975 5.73138825
Ni 0.81876975 5.73138825 5.73138825
Ni 4.09384875 0.81876975 4.09384875
Ni 2.45630925 2.45630925 0.81876975
Ni 5.73138825 4.09384875 2.45630925
Ni 0.81876975 2.45630925 2.45630925
Ni 4.09384875 4.09384875 0.81876975
CELL_PARAMETERS {angstrom}
6.550158 0.00 0.00
0.000000 6.550158 0.00
0.000000 0.000000 6.550158