&CONTROL
calculation = "vc-md"
nstep = 200
etot_conv_thr = 1.0d-5
forc_conv_thr = 1.0d-4
disk_io = '/dev/null'
pseudo_dir = '/opt/QEpot/SSSP_efficiency_pseudos/'
tprnfor = .true.
tstress = .true.
verbosity = 'high'
dt = 20
/
&SYSTEM
ntyp =  2
occupations = 'smearing' !
smearing = 'gaussian'
degauss =   0.035
ecutrho =   1080
ecutwfc =   90
ibrav = 0
nat = 20
nosym = .TRUE.
starting_magnetization(1) =   3.5714285714d-01
starting_magnetization(2) =   3.1250000000d-01
nspin = 2
/
&ELECTRONS
conv_thr =   2.d-6
electron_maxstep = 200
mixing_beta =   0.2
mixing_mode = 'plain' !'local-TF'
mixing_ndim = 8 !set 4 or 3 if OOM-killer exists (out of memory)
diagonalization = 'david' !set cg if if OOM-killer exists (out of memory). other types can be used for scf problem.
diago_david_ndim = 4 !If david is used for diagonalization. set 2 if OOM-killer appears.
/
&IONS
ion_dynamics = "beeman"
ion_temperature = "rescaling"
tempw = 600
/
&CELL
press = 0
cell_dynamics = "pr"
press = 0
cell_dofree = "all"
/
K_POINTS {automatic}
8 6 2 0 0 0
ATOMIC_SPECIES
Cr     51.9961 cr_pbe_v1.5.uspp.F.UPF
Fe     55.845 Fe.pbe-spn-kjpaw_psl.0.2.1.UPF
ATOMIC_POSITIONS {angstrom}
Cr 0 0 0
Cr 0 1.997128 10.055634
Cr 1.425425 0 10.055634
Cr 1.425425 1.997128 0
Fe 0 0 8.051827701552
Fe 1.425425 0 6.038126659248
Fe 0 0 4.017507340752
Fe 1.425425 0 2.003806298448
Fe 0 1.997128 18.107461701552
Fe 1.425425 1.997128 16.093760659248
Fe 0 1.997128 14.073141340752
Fe 1.425425 1.997128 12.059440298448
Fe 1.425425 0 18.107461701552
Fe 0 0 16.093760659248
Fe 1.425425 0 14.073141340752
Fe 0 0 12.059440298448
Fe 1.425425 1.997128 8.051827701552
Fe 0 1.997128 6.038126659248
Fe 1.425425 1.997128 4.017507340752
Fe 0 1.997128 2.003806298448
CELL_PARAMETERS {angstrom}
2.850850 0.00 0.00
0.000000 3.994256 0.00
0.000000 0.000000 20.111268