&CONTROL
calculation = "vc-md"
nstep = 200
etot_conv_thr = 1.0d-5
forc_conv_thr = 1.0d-4
disk_io = '/dev/null'
pseudo_dir = '/opt/QEpot/SSSP_efficiency_pseudos/'
tprnfor = .true.
tstress = .true.
verbosity = 'high'
dt = 20
/
&SYSTEM
ntyp =  1
occupations = 'smearing' !
smearing = 'gaussian'
degauss =   0.035
ecutrho =   1080
ecutwfc =   90
ibrav = 0
nat = 46
nosym = .TRUE.
starting_magnetization(1) =   2.9411764706d-01
nspin = 2
/
&ELECTRONS
conv_thr =   2.d-6
electron_maxstep = 200
mixing_beta =   0.2
mixing_mode = 'plain' !'local-TF'
mixing_ndim = 8 !set 4 or 3 if OOM-killer exists (out of memory)
diagonalization = 'david' !set cg if if OOM-killer exists (out of memory). other types can be used for scf problem.
diago_david_ndim = 4 !If david is used for diagonalization. set 2 if OOM-killer appears.
/
&IONS
ion_dynamics = "beeman"
ion_temperature = "rescaling"
tempw = 600
/
&CELL
press = 0
cell_dynamics = "pr"
press = 0
cell_dofree = "all"
/
K_POINTS {automatic}
4 4 3 0 0 0
ATOMIC_SPECIES
Co     58.933195 Co_pbe_v1.2.uspp.F.UPF
ATOMIC_POSITIONS {angstrom}
Co 0 0 8.250493273836
Co -2.005326280584 5.695754476412 9.47259376996
Co 2.223803114653 1.28391332687 7.048501685984
Co 1.975336412963 3.39751779874 5.779054203524
Co 0 2.567826653739 2.205315685984
Co 3.93000493 0.011932615277 5.779054203524
Co 5.945340933141 1.105434620331 2.19115421012
Co 0 0 3.407307273836
Co 5.884673447037 3.39751779874 5.779054203524
Co 3.93000493 0.198668174258 3.359030395788
Co 2.005326280584 5.695754476412 9.47259376996
Co 0 0 5.853784563504
Co 2.06886463529 1.194459554102 9.475189717656
Co 0 2.222427472687 9.47259376996
Co -1.86114029471 5.612508658655 4.632003717656
Co 1.86114029471 5.612508658655 4.632003717656
Co 3.9300049693 2.268989381562 8.563343716692
Co 0 2.388919108203 4.632003717656
Co 5.935331210584 1.111213736344 4.62940776996
Co 2.13705415083 3.304150019249 3.359030395788
Co -1.79295077917 3.502818193507 8.202216395788
Co 0 6.795035597479 0.935868203524
Co 5.79114522471 1.194459554102 9.475189717656
Co 5.636206745347 1.28391332687 7.048501685984
Co 0 6.608300038499 8.202216395788
Co 3.93000493 4.584540740069 4.62940776996
Co -1.954668517037 3.409450414017 0.935868203524
Co 2.015336003141 5.701533592425 7.03434021012
Co 3.9300049693 2.268989381562 1.731690840672
Co 1.914668926859 1.105434620331 2.19115421012
Co 1.79295077917 3.502818193507 8.202216395788
Co -3.93e-08 4.537978831194 6.574876840672
Co 5.72295570917 3.304150019249 3.359030395788
Co 3.93000493 4.418049104553 9.475189717656
Co 0 2.210869240662 7.03434021012
Co 1.924678649416 1.111213736344 4.62940776996
Co -3.93e-08 4.537978831194 3.720157716692
Co -3.93e-08 4.537978831194 9.586156795288
Co 1.706201815347 5.523054885887 2.205315685984
Co 3.93000493 4.596098972094 2.19115421012
Co -1.706201815347 5.523054885887 2.205315685984
Co 0 0 1.010598563504
Co -2.015336003141 5.701533592425 7.03434021012
Co 3.9300049693 2.268989381562 4.742970795288
Co 3.93000493 4.239141559017 7.048501685984
Co 1.954668517037 3.409450414017 0.935868203524
CELL_PARAMETERS {angstrom}
7.860010 0.00 0.00
-3.930005 6.806968 0.00
0.000000 0.000000 9.686372