&CONTROL
calculation = "vc-md"
nstep = 200
etot_conv_thr = 1.0d-5
forc_conv_thr = 1.0d-4
disk_io = '/dev/null'
pseudo_dir = '/opt/QEpot/SSSP_efficiency_pseudos/'
tprnfor = .true.
tstress = .true.
verbosity = 'high'
dt = 20
/
&SYSTEM
ntyp =  2
occupations = 'smearing' !
smearing = 'gaussian'
degauss =   0.035
ecutrho =   1080
ecutwfc =   90
ibrav = 0
nat = 8
nosym = .TRUE.
starting_magnetization(1) =   2.7777777778d-01
starting_magnetization(2) =   3.8461538462d-01
nspin = 2
/
&ELECTRONS
conv_thr =   2.d-6
electron_maxstep = 200
mixing_beta =   0.2
mixing_mode = 'plain' !'local-TF'
mixing_ndim = 8 !set 4 or 3 if OOM-killer exists (out of memory)
diagonalization = 'david' !set cg if if OOM-killer exists (out of memory). other types can be used for scf problem.
diago_david_ndim = 4 !If david is used for diagonalization. set 2 if OOM-killer appears.
/
&IONS
ion_dynamics = "beeman"
ion_temperature = "rescaling"
tempw = 50
/
&CELL
press = 0
cell_dynamics = "pr"
press = 0
cell_dofree = "all"
/
K_POINTS {automatic}
7 7 3 0 0 0
ATOMIC_SPECIES
Ni     58.6934 ni_pbe_v1.4.uspp.F.UPF
V      50.9415 v_pbe_v1.4.uspp.F.UPF
ATOMIC_POSITIONS {angstrom}
V 0 0 0
V 1.744792755 1.744792755 3.564306885
Ni 1.744792755 0 5.3464603275
Ni 0 1.744792755 5.3464603275
Ni 1.744792755 1.744792755 0
Ni 0 1.744792755 1.7821534425
Ni 1.744792755 0 1.7821534425
Ni 0 0 3.564306885
CELL_PARAMETERS {angstrom}
3.489586 0.00 0.00
0.000000 3.489586 0.00
0.000000 0.000000 7.128614