&CONTROL
calculation = "vc-md"
nstep = 200
etot_conv_thr = 1.0d-5
forc_conv_thr = 1.0d-4
disk_io = '/dev/null'
pseudo_dir = '/opt/QEpot/SSSP_efficiency_pseudos/'
tprnfor = .true.
tstress = .true.
verbosity = 'high'
dt = 20
/
&SYSTEM
ntyp =  2
occupations = 'smearing' !
smearing = 'gaussian'
degauss =   0.035
ecutrho =   1080
ecutwfc =   90
ibrav = 0
nat = 12
nosym = .TRUE.
starting_magnetization(1) =   3.1250000000d-01
starting_magnetization(2) =   2.7777777778d-01
nspin = 2
/
&ELECTRONS
conv_thr =   2.d-6
electron_maxstep = 200
mixing_beta =   0.2
mixing_mode = 'plain' !'local-TF'
mixing_ndim = 8 !set 4 or 3 if OOM-killer exists (out of memory)
diagonalization = 'david' !set cg if if OOM-killer exists (out of memory). other types can be used for scf problem.
diago_david_ndim = 4 !If david is used for diagonalization. set 2 if OOM-killer appears.
/
&IONS
ion_dynamics = "beeman"
ion_temperature = "rescaling"
tempw = 600
/
&CELL
press = 0
cell_dynamics = "pr"
press = 0
cell_dofree = "all"
/
K_POINTS {automatic}
10 10 1 0 0 0
ATOMIC_SPECIES
Fe     55.845 Fe.pbe-spn-kjpaw_psl.0.2.1.UPF
Ni     58.6934 ni_pbe_v1.4.uspp.F.UPF
ATOMIC_POSITIONS {angstrom}
Fe 0 0 0
Fe 1.249370982494 0.721324658634 8.172075014946
Fe -1.2494e-08 1.442649338908 16.344150275054
Ni 0 0 6.13665635234
Ni -1.2494e-08 1.442649338908 4.086037630054
Ni 1.249370982494 0.721324658634 2.035418662606
Ni 1.249370982494 0.721324658634 14.308731367286
Ni 1.24937097 2.163973997542 12.258112645
Ni -1.2494e-08 1.442649338908 10.207493922714
Ni -1.2494e-08 1.442649338908 22.480806627394
Ni 1.249370982494 0.721324658634 20.430187659946
Ni 0 0 18.37956893766
CELL_PARAMETERS {angstrom}
2.498742 0.00 0.00
-1.249371 2.163974 0.00
0.000000 0.000000 24.516225