&CONTROL
calculation = "vc-md"
nstep = 200
etot_conv_thr = 1.0d-5
forc_conv_thr = 1.0d-4
disk_io = '/dev/null'
pseudo_dir = '/opt/QEpot/SSSP_efficiency_pseudos/'
tprnfor = .true.
tstress = .true.
verbosity = 'high'
dt = 20
/
&SYSTEM
ntyp =  2
occupations = 'smearing' !
smearing = 'gaussian'
degauss =   0.035
ecutrho =   1080
ecutwfc =   90
ibrav = 0
nat = 30
nosym = .TRUE.
starting_magnetization(1) =   2.9411764706d-01
starting_magnetization(2) =   3.5714285714d-01
nspin = 2
/
&ELECTRONS
conv_thr =   2.d-6
electron_maxstep = 200
mixing_beta =   0.2
mixing_mode = 'plain' !'local-TF'
mixing_ndim = 8 !set 4 or 3 if OOM-killer exists (out of memory)
diagonalization = 'david' !set cg if if OOM-killer exists (out of memory). other types can be used for scf problem.
diago_david_ndim = 4 !If david is used for diagonalization. set 2 if OOM-killer appears.
/
&IONS
ion_dynamics = "beeman"
ion_temperature = "rescaling"
tempw = 600
/
&CELL
press = 0
cell_dynamics = "pr"
press = 0
cell_dofree = "all"
/
K_POINTS {automatic}
3 3 5 0 0 0
ATOMIC_SPECIES
Co     58.933195 Co_pbe_v1.2.uspp.F.UPF
Cr     51.9961 cr_pbe_v1.5.uspp.F.UPF
ATOMIC_POSITIONS {angstrom}
Cr 8.284839996629 3.170436754192 2.254443134046
Cr 0.299499003371 5.413902245808 2.254443134046
Cr 3.992670496629 1.121732745808 4.509869634046
Cr 4.591668503371 7.462606254192 4.509869634046
Cr 3.170436754192 8.284839996629 2.254443134046
Cr 5.413902245808 0.299499003371 2.254443134046
Cr 1.121732745808 3.992670496629 4.509869634046
Cr 7.462606254192 4.591668503371 4.509869634046
Cr 7.725638985491 0.858700014509 2.256035465155
Cr 0.858700014509 7.725638985491 2.256035465155
Cr 3.433469485491 3.433469485491 0.000608965155
Cr 5.150869514509 5.150869514509 0.000608965155
Cr 2.667025362215 5.917313637785 3.349164005204
Cr 5.917313637785 2.667025362215 3.349164005204
Cr 6.959194862215 6.959194862215 1.093737505204
Cr 1.625144137785 1.625144137785 1.093737505204
Co 3.741037767522 2.044823887156 2.279753530229
Co 4.843301232478 6.539515112844 2.279753530229
Co 8.033207267522 2.247345612844 0.024327030229
Co 0.551131732478 6.336993387156 0.024327030229
Co 2.044823887156 3.741037767522 2.279753530229
Co 6.539515112844 4.843301232478 2.279753530229
Co 2.247345612844 8.033207267522 0.024327030229
Co 6.336993387156 0.551131732478 0.024327030229
Co 4.2921695 4.2921695 2.294332607125
Co 0 0 0.038906107125
Co 5.837050068135 2.747288931865 1.094941902955
Co 2.747288931865 5.837050068135 1.094941902955
Co 1.544880568135 1.544880568135 3.350368402955
Co 7.039458431865 7.039458431865 3.350368402955
CELL_PARAMETERS {angstrom}
8.584339 0.00 0.00
0.000000 8.584339 0.00
0.000000 0.000000 4.510853