&CONTROL
calculation = "vc-md"
nstep = 200
etot_conv_thr = 1.0d-5
forc_conv_thr = 1.0d-4
disk_io = '/dev/null'
pseudo_dir = '/opt/QEpot/SSSP_efficiency_pseudos/'
tprnfor = .true.
tstress = .true.
verbosity = 'high'
dt = 20
/
&SYSTEM
ntyp =  2
occupations = 'smearing' !
smearing = 'gaussian'
degauss =   0.035
ecutrho =   1080
ecutwfc =   90
ibrav = 0
nat = 24
nosym = .TRUE.
starting_magnetization(1) =   3.5714285714d-01
starting_magnetization(2) =   2.7777777778d-01
nspin = 2
/
&ELECTRONS
conv_thr =   2.d-6
electron_maxstep = 200
mixing_beta =   0.2
mixing_mode = 'plain' !'local-TF'
mixing_ndim = 8 !set 4 or 3 if OOM-killer exists (out of memory)
diagonalization = 'david' !set cg if if OOM-killer exists (out of memory). other types can be used for scf problem.
diago_david_ndim = 4 !If david is used for diagonalization. set 2 if OOM-killer appears.
/
&IONS
ion_dynamics = "beeman"
ion_temperature = "rescaling"
tempw = 50
/
&CELL
press = 0
cell_dynamics = "pr"
press = 0
cell_dofree = "all"
/
K_POINTS {automatic}
4 4 4 0 0 0
ATOMIC_SPECIES
Cr     51.9961 cr_pbe_v1.5.uspp.F.UPF
Ni     58.6934 ni_pbe_v1.4.uspp.F.UPF
ATOMIC_POSITIONS {angstrom}
Cr 5.742639 5.742639 0.820377
Cr 2.461131 0.820377 2.461131
Cr 4.101885 5.742639 2.461131
Cr 0.820377 0.820377 0.820377
Cr 5.742639 2.461131 4.101885
Cr 2.461131 4.101885 5.742639
Cr 4.101885 2.461131 5.742639
Cr 0.820377 4.101885 4.101885
Cr 2.461131 5.742639 4.101885
Cr 5.742639 0.820377 5.742639
Cr 0.820377 5.742639 5.742639
Cr 4.101885 0.820377 4.101885
Cr 2.461131 2.461131 0.820377
Cr 5.742639 4.101885 2.461131
Cr 0.820377 2.461131 2.461131
Cr 4.101885 4.101885 0.820377
Ni 1.640754 4.922262 1.640754
Ni 0 0 3.281508
Ni 1.640754 1.640754 4.922262
Ni 0 3.281508 0
Ni 4.922262 4.922262 4.922262
Ni 3.281508 0 0
Ni 4.922262 1.640754 1.640754
Ni 3.281508 3.281508 3.281508
CELL_PARAMETERS {angstrom}
6.563016 0.00 0.00
0.000000 6.563016 0.00
0.000000 0.000000 6.563016