&CONTROL
calculation = "vc-md"
nstep = 200
etot_conv_thr = 1.0d-5
forc_conv_thr = 1.0d-4
disk_io = '/dev/null'
pseudo_dir = '/opt/QEpot/SSSP_efficiency_pseudos/'
tprnfor = .true.
tstress = .true.
verbosity = 'high'
dt = 20
/
&SYSTEM
ntyp =  3
occupations = 'smearing' !
smearing = 'gaussian'
degauss =   0.035
ecutrho =   1080
ecutwfc =   90
ibrav = 0
nat = 36
nosym = .TRUE.
starting_magnetization(1) =   2.9411764706d-01
starting_magnetization(2) =   2.7777777778d-01
starting_magnetization(3) =   3.8461538462d-01
nspin = 2
/
&ELECTRONS
conv_thr =   2.d-6
electron_maxstep = 200
mixing_beta =   0.2
mixing_mode = 'plain' !'local-TF'
mixing_ndim = 8 !set 4 or 3 if OOM-killer exists (out of memory)
diagonalization = 'david' !set cg if if OOM-killer exists (out of memory). other types can be used for scf problem.
diago_david_ndim = 4 !If david is used for diagonalization. set 2 if OOM-killer appears.
/
&IONS
ion_dynamics = "beeman"
ion_temperature = "rescaling"
tempw = 600
/
&CELL
press = 0
cell_dynamics = "pr"
press = 0
cell_dofree = "all"
/
K_POINTS {automatic}
5 5 2 0 0 0
ATOMIC_SPECIES
Co     58.933195 Co_pbe_v1.2.uspp.F.UPF
Ni     58.6934 ni_pbe_v1.4.uspp.F.UPF
V      50.9415 v_pbe_v1.4.uspp.F.UPF
ATOMIC_POSITIONS {angstrom}
V 0 0 0
V 2.506369520064 1.447053088156 2.122752058117
V 0 0 3.918950062717
V 2.506369520064 1.447053088156 6.041701939583
V -2.5064e-08 2.894106219724 8.1644539977
V 2.506369520064 1.447053088156 9.9606520023
V -2.5064e-08 2.894106219724 12.083404060417
V 0 0 14.206155937283
V -2.5064e-08 2.894106219724 16.002353941883
Co -1.224990622114 2.186857568762 4.028407577851
Co -2.5064e-08 4.308603521648 4.028407577851
Co 1.224990571987 2.186857568762 4.028407577851
Co 1.224990571987 3.601354870686 2.013294542983
Co -2.5064e-08 1.4796089178 2.013294542983
Co -1.224990622114 3.601354870686 2.013294542983
Co 1.281378897949 3.633910656919 10.070109517434
Co 0 1.414497301924 10.070109517434
Co -1.281378897949 3.633910656919 10.070109517434
Co 1.224990597051 0.707248650962 8.054996482566
Co 2.506369495 2.926662005957 8.054996482566
Co 3.787748392949 0.707248650962 8.054996482566
Co 1.281378923013 0.739804437194 16.111811457017
Co 2.506369520064 2.86155039008 16.111811457017
Co 3.731360117114 0.739804437194 16.111811457017
Co 3.731360117114 2.154301739118 14.096698422149
Co 2.506369520064 0.032555786232 14.096698422149
Co 1.281378923013 2.154301739118 14.096698422149
Ni 2.506369495 0 0
Ni 1.2531847475 2.17057965394 0
Ni -1.2531847475 2.17057965394 0
Ni 2.5064e-08 1.447053088156 6.041701939583
Ni -1.253184722436 3.617632742097 6.041701939583
Ni 1.253184772564 3.617632742097 6.041701939583
Ni 2.506369469936 2.894106219724 12.083404060417
Ni 3.759554217436 0.723526565784 12.083404060417
Ni 1.253184722436 0.723526565784 12.083404060417
CELL_PARAMETERS {angstrom}
5.012739 0.00 0.00
-2.506369 4.341159 0.00
0.000000 0.000000 18.125106