&CONTROL
calculation = "vc-md"
nstep = 200
etot_conv_thr = 1.0d-5
forc_conv_thr = 1.0d-4
disk_io = '/dev/null'
pseudo_dir = '/opt/QEpot/SSSP_efficiency_pseudos/'
tprnfor = .true.
tstress = .true.
verbosity = 'high'
dt = 20
/
&SYSTEM
ntyp =  1
occupations = 'smearing' !
smearing = 'gaussian'
degauss =   0.035
ecutrho =   1080
ecutwfc =   90
ibrav = 0
nat = 8
nosym = .TRUE.
starting_magnetization(1) =   2.7777777778d-01
nspin = 2
/
&ELECTRONS
conv_thr =   2.d-6
electron_maxstep = 200
mixing_beta =   0.2
mixing_mode = 'plain' !'local-TF'
mixing_ndim = 8 !set 4 or 3 if OOM-killer exists (out of memory)
diagonalization = 'david' !set cg if if OOM-killer exists (out of memory). other types can be used for scf problem.
diago_david_ndim = 4 !If david is used for diagonalization. set 2 if OOM-killer appears.
/
&IONS
ion_dynamics = "beeman"
ion_temperature = "rescaling"
tempw = 600
/
&CELL
press = 0
cell_dynamics = "pr"
press = 0
cell_dofree = "all"
/
K_POINTS {automatic}
6 6 2 0 0 0
ATOMIC_SPECIES
Ni     58.6934 ni_pbe_v1.4.uspp.F.UPF
ATOMIC_POSITIONS {angstrom}
Ni -1.2083e-08 1.395273297713 5.747239127586
Ni 1.208342127083 0.697636638392 7.768107872414
Ni 2.416684217917 1.395273297713 5.747239127586
Ni 3.625026357083 0.697636638392 7.768107872414
Ni -1.208342127083 3.488183233818 5.747239127586
Ni 1.2083e-08 2.790546574497 7.768107872414
Ni 1.208342102917 3.488183233818 5.747239127586
Ni 2.416684242083 2.790546574497 7.768107872414
CELL_PARAMETERS {angstrom}
4.833368 0.00 0.00
-2.416684 4.185820 0.00
0.000000 0.000000 13.515347