&CONTROL
calculation = "vc-md"
nstep = 200
etot_conv_thr = 1.0d-5
forc_conv_thr = 1.0d-4
disk_io = '/dev/null'
pseudo_dir = '/opt/QEpot/SSSP_efficiency_pseudos/'
tprnfor = .true.
tstress = .true.
verbosity = 'high'
dt = 20
/
&SYSTEM
ntyp =  2
occupations = 'smearing' !
smearing = 'gaussian'
degauss =   0.035
ecutrho =   1080
ecutwfc =   90
ibrav = 0
nat = 12
nosym = .TRUE.
starting_magnetization(1) =   3.1250000000d-01
starting_magnetization(2) =   2.7777777778d-01
nspin = 2
/
&ELECTRONS
conv_thr =   2.d-6
electron_maxstep = 200
mixing_beta =   0.2
mixing_mode = 'plain' !'local-TF'
mixing_ndim = 8 !set 4 or 3 if OOM-killer exists (out of memory)
diagonalization = 'david' !set cg if if OOM-killer exists (out of memory). other types can be used for scf problem.
diago_david_ndim = 4 !If david is used for diagonalization. set 2 if OOM-killer appears.
/
&IONS
ion_dynamics = "beeman"
ion_temperature = "rescaling"
tempw = 600
/
&CELL
press = 0
cell_dynamics = "pr"
press = 0
cell_dofree = "all"
/
K_POINTS {automatic}
10 10 1 0 0 0
ATOMIC_SPECIES
Fe     55.845 Fe.pbe-spn-kjpaw_psl.0.2.1.UPF
Ni     58.6934 ni_pbe_v1.4.uspp.F.UPF
ATOMIC_POSITIONS {angstrom}
Fe 0 0 6.221948302539
Fe -1.2517e-08 1.445326881623 4.145776647916
Fe 1.251689802517 0.722663429972 2.069604744545
Fe 1.251689802517 0.722663429972 14.513501349624
Fe 1.25168979 2.167990311595 12.437329695
Fe -1.2517e-08 1.445326881623 10.361158040376
Fe -1.2517e-08 1.445326881623 22.805054645455
Fe 1.251689802517 0.722663429972 20.728882742084
Fe 0 0 18.652711087461
Ni 0 0 0
Ni 1.251689802517 0.722663429972 8.291553047084
Ni -1.2517e-08 1.445326881623 16.583106342916
CELL_PARAMETERS {angstrom}
2.503380 0.00 0.00
-1.251690 2.167990 0.00
0.000000 0.000000 24.874659