&CONTROL
calculation = "vc-md"
nstep = 200
etot_conv_thr = 1.0d-5
forc_conv_thr = 1.0d-4
disk_io = '/dev/null'
pseudo_dir = '/opt/QEpot/SSSP_efficiency_pseudos/'
tprnfor = .true.
tstress = .true.
verbosity = 'high'
dt = 20
/
&SYSTEM
ntyp =  3
occupations = 'smearing' !
smearing = 'gaussian'
degauss =   0.035
ecutrho =   1080
ecutwfc =   90
ibrav = 0
nat = 12
nosym = .TRUE.
starting_magnetization(1) =   1.0000000000d-01
starting_magnetization(2) =   3.1250000000d-01
starting_magnetization(3) =   2.7777777778d-01
nspin = 2
/
&ELECTRONS
conv_thr =   2.d-6
electron_maxstep = 200
mixing_beta =   0.2
mixing_mode = 'plain' !'local-TF'
mixing_ndim = 8 !set 4 or 3 if OOM-killer exists (out of memory)
diagonalization = 'david' !set cg if if OOM-killer exists (out of memory). other types can be used for scf problem.
diago_david_ndim = 4 !If david is used for diagonalization. set 2 if OOM-killer appears.
/
&IONS
ion_dynamics = "beeman"
ion_temperature = "rescaling"
tempw = 50
/
&CELL
press = 0
cell_dynamics = "pr"
press = 0
cell_dofree = "all"
/
K_POINTS {automatic}
5 5 4 0 0 0
ATOMIC_SPECIES
Cu     63.546 Cu.paw.z_11.ld1.psl.v1.0.0-low.upf
Fe     55.845 Fe.pbe-spn-kjpaw_psl.0.2.1.UPF
Ni     58.6934 ni_pbe_v1.4.uspp.F.UPF
ATOMIC_POSITIONS {angstrom}
Fe 0 0 2.114383388368
Cu -1.2365e-08 1.427739972499 6.174747237862
Ni 1.236459092365 0.713869975541 4.06210537377
Fe 2.47291816 0 2.114383388368
Cu 2.472918147635 1.427739972499 6.174747237862
Ni 3.709377252365 0.713869975541 4.06210537377
Fe -1.23645908 2.14160994804 2.114383388368
Cu -1.236459092365 3.569349920538 6.174747237862
Ni 1.2365e-08 2.855479923581 4.06210537377
Fe 1.23645908 2.14160994804 2.114383388368
Cu 1.236459067635 3.569349920538 6.174747237862
Ni 2.472918172365 2.855479923581 4.06210537377
CELL_PARAMETERS {angstrom}
4.945836 0.00 0.00
-2.472918 4.283220 0.00
0.000000 0.000000 6.175618