&CONTROL
calculation = "vc-md"
nstep = 200
etot_conv_thr = 1.0d-5
forc_conv_thr = 1.0d-4
disk_io = '/dev/null'
pseudo_dir = '/opt/QEpot/SSSP_efficiency_pseudos/'
tprnfor = .true.
tstress = .true.
verbosity = 'high'
dt = 20
/
&SYSTEM
ntyp =  2
occupations = 'smearing' !
smearing = 'gaussian'
degauss =   0.035
ecutrho =   1080
ecutwfc =   90
ibrav = 0
nat = 8
nosym = .TRUE.
starting_magnetization(1) =   3.1250000000d-01
starting_magnetization(2) =   3.8461538462d-01
nspin = 2
/
&ELECTRONS
conv_thr =   2.d-6
electron_maxstep = 200
mixing_beta =   0.2
mixing_mode = 'plain' !'local-TF'
mixing_ndim = 8 !set 4 or 3 if OOM-killer exists (out of memory)
diagonalization = 'david' !set cg if if OOM-killer exists (out of memory). other types can be used for scf problem.
diago_david_ndim = 4 !If david is used for diagonalization. set 2 if OOM-killer appears.
/
&IONS
ion_dynamics = "beeman"
ion_temperature = "rescaling"
tempw = 50
/
&CELL
press = 0
cell_dynamics = "pr"
press = 0
cell_dofree = "all"
/
K_POINTS {automatic}
8 6 3 0 0 0
ATOMIC_SPECIES
Fe     55.845 Fe.pbe-spn-kjpaw_psl.0.2.1.UPF
V      50.9415 v_pbe_v1.4.uspp.F.UPF
ATOMIC_POSITIONS {angstrom}
V 0 0 0
V 1.460994 2.011906885 0
Fe 1.460994 0 5.999567177831
Fe 0 0 4.015704665
Fe 1.460994 0 2.031842152169
Fe 0 2.011906885 5.999567177831
Fe 1.460994 2.011906885 4.015704665
Fe 0 2.011906885 2.031842152169
CELL_PARAMETERS {angstrom}
2.921988 0.00 0.00
0.000000 4.023814 0.00
0.000000 0.000000 8.031409