&CONTROL
calculation = "vc-md"
nstep = 200
etot_conv_thr = 1.0d-5
forc_conv_thr = 1.0d-4
disk_io = '/dev/null'
pseudo_dir = '/opt/QEpot/SSSP_efficiency_pseudos/'
tprnfor = .true.
tstress = .true.
verbosity = 'high'
dt = 20
/
&SYSTEM
ntyp =  2
occupations = 'smearing' !
smearing = 'gaussian'
degauss =   0.035
ecutrho =   1080
ecutwfc =   90
ibrav = 0
nat = 60
nosym = .TRUE.
starting_magnetization(1) =   2.9411764706d-01
starting_magnetization(2) =   3.5714285714d-01
nspin = 2
/
&ELECTRONS
conv_thr =   2.d-6
electron_maxstep = 200
mixing_beta =   0.2
mixing_mode = 'plain' !'local-TF'
mixing_ndim = 8 !set 4 or 3 if OOM-killer exists (out of memory)
diagonalization = 'david' !set cg if if OOM-killer exists (out of memory). other types can be used for scf problem.
diago_david_ndim = 4 !If david is used for diagonalization. set 2 if OOM-killer appears.
/
&IONS
ion_dynamics = "beeman"
ion_temperature = "rescaling"
tempw = 50
/
&CELL
press = 0
cell_dynamics = "pr"
press = 0
cell_dofree = "all"
/
K_POINTS {automatic}
2 2 5 0 0 0
ATOMIC_SPECIES
Co     58.933195 Co_pbe_v1.2.uspp.F.UPF
Cr     51.9961 cr_pbe_v1.5.uspp.F.UPF
ATOMIC_POSITIONS {angstrom}
Cr 6.074047955 7.416906415028 2.252160847654
Cr 6.074047955 4.881268674972 2.252160847654
Cr 4.776206128455 0 4.480667432284
Cr 7.371889781545 0 4.480667432284
Cr 8.099530356314 8.687523119889 2.257827265905
Cr 4.048565553686 3.610651970111 2.257827265905
Cr 3.619142511363 10.231559002439 4.488099831798
Cr 8.528953398637 2.066616087561 4.488099831798
Cr 8.099530356314 3.610651970111 2.257827265905
Cr 4.048565553686 8.687523119889 2.257827265905
Cr 3.619142511363 2.066616087561 4.488099831798
Cr 8.528953398637 10.231559002439 4.488099831798
Cr 2.225020950684 0 1.119739966926
Cr 9.923074959316 0 1.119739966926
Cr 6.074047955 2.222354027814 1.117762786886
Cr 6.074047955 10.075821062186 1.117762786886
Cr 9.936364976242 0 3.365627761544
Cr 2.211730933758 0 3.365627761544
Cr 0 1.267818870028 2.252160847654
Cr 0 11.030356219972 2.252160847654
Cr 10.850254083455 6.149087545 4.480667432284
Cr 1.297841826545 6.149087545 4.480667432284
Cr 2.025482401314 2.538435574889 2.257827265905
Cr 10.122613508686 9.759739515111 2.257827265905
Cr 9.693190466363 4.082471457439 4.488099831798
Cr 2.454905443637 8.215703632561 4.488099831798
Cr 2.025482401314 9.759739515111 2.257827265905
Cr 10.122613508686 2.538435574889 2.257827265905
Cr 9.693190466363 8.215703632561 4.488099831798
Cr 2.454905443637 4.082471457439 4.488099831798
Cr 8.299068905684 6.149087545 1.119739966926
Cr 3.849027004316 6.149087545 1.119739966926
Cr 0 8.371441572814 1.117762786886
Cr 0 3.926733517186 1.117762786886
Cr 3.862317021242 6.149087545 3.365627761544
Cr 8.285778888758 6.149087545 3.365627761544
Co 4.091023148891 1.203308792594 2.264594613951
Co 8.057072761109 11.094866297406 2.264594613951
Co 4.885314251871 8.163928315432 0.000975109247
Co 7.262781658129 4.134246774568 0.000975109247
Co 4.091023148891 11.094866297406 2.264594613951
Co 8.057072761109 1.203308792594 2.264594613951
Co 4.885314251871 4.134246774568 0.000975109247
Co 7.262781658129 8.163928315432 0.000975109247
Co 6.074047955 0 2.196008934518
Co 0 0 4.489003043589
Co 6.074047955 10.029395451222 3.370665077055
Co 6.074047955 2.268779638778 3.370665077055
Co 10.165071103891 7.352396337594 2.264594613951
Co 1.983024806109 4.945778752406 2.264594613951
Co 10.959362206871 2.014840770432 0.000975109247
Co 1.188733703129 10.283334319568 0.000975109247
Co 10.165071103891 4.945778752406 2.264594613951
Co 1.983024806109 7.352396337594 2.264594613951
Co 10.959362206871 10.283334319568 0.000975109247
Co 1.188733703129 2.014840770432 0.000975109247
Co 0 6.149087545 2.196008934518
Co 6.074047955 6.149087545 4.489003043589
Co 0 3.880307906222 3.370665077055
Co 0 8.417867183778 3.370665077055
CELL_PARAMETERS {angstrom}
12.148096 0.00 0.00
0.000000 12.298175 0.00
0.000000 0.000000 4.493591