&CONTROL
calculation = "vc-md"
nstep = 200
etot_conv_thr = 1.0d-5
forc_conv_thr = 1.0d-4
disk_io = '/dev/null'
pseudo_dir = '/opt/QEpot/SSSP_efficiency_pseudos/'
tprnfor = .true.
tstress = .true.
verbosity = 'high'
dt = 20
/
&SYSTEM
ntyp =  2
occupations = 'smearing' !
smearing = 'gaussian'
degauss =   0.035
ecutrho =   1080
ecutwfc =   90
ibrav = 0
nat = 12
nosym = .TRUE.
starting_magnetization(1) =   2.9411764706d-01
starting_magnetization(2) =   3.8461538462d-01
nspin = 2
/
&ELECTRONS
conv_thr =   2.d-6
electron_maxstep = 200
mixing_beta =   0.2
mixing_mode = 'plain' !'local-TF'
mixing_ndim = 8 !set 4 or 3 if OOM-killer exists (out of memory)
diagonalization = 'david' !set cg if if OOM-killer exists (out of memory). other types can be used for scf problem.
diago_david_ndim = 4 !If david is used for diagonalization. set 2 if OOM-killer appears.
/
&IONS
ion_dynamics = "beeman"
ion_temperature = "rescaling"
tempw = 50
/
&CELL
press = 0
cell_dynamics = "pr"
press = 0
cell_dofree = "all"
/
K_POINTS {automatic}
10 10 1 0 0 0
ATOMIC_SPECIES
Co     58.933195 Co_pbe_v1.2.uspp.F.UPF
V      50.9415 v_pbe_v1.4.uspp.F.UPF
ATOMIC_POSITIONS {angstrom}
V 0 0 0
V 1.26502309765 0.730361411352 8.228941701044
V -1.265e-08 1.460722844615 16.457883648956
Co 1.26502309765 0.730361411352 2.111521692489
Co -1.265e-08 1.460722844615 4.114470973956
Co 0 0 6.117420008555
Co -1.265e-08 1.460722844615 10.340463640401
Co 1.265023085 2.191084255968 12.343412675
Co 1.26502309765 0.730361411352 14.346361709599
Co 0 0 18.569405341445
Co 1.26502309765 0.730361411352 20.572354376044
Co -1.265e-08 1.460722844615 22.575303657511
CELL_PARAMETERS {angstrom}
2.530046 0.00 0.00
-1.265023 2.191084 0.00
0.000000 0.000000 24.686825